100
[20,21,22,23,24,25,26,27,28,29,30,31,32,33,34,35,36,37,38,39,40,41,42,43,44,45,46,47,48,49,50,51,52,53,54,55,56,57,58,59,60,61,62,63,64,65,66,67,68,69,70,71,72,73,74,75,76,77,78,79,80]
[10,20,11,14,11,10,11,13,7,8,10,7,10,7,15,8,13,19,13,15,10,11,10,10,14,14,9,15,11,12,14,8,11,15,11,13,13,11,11,16,13,12,16,14,8,9,17,9,10,16,16,12,21,11,10,15,13,13,17,12,15]
